10
1 0 5
2 0 8
2 1 27
3 0 26
3 1 39
3 2 4
4 0 40
4 1 16
4 2 33
4 3 38
5 0 22
5 1 13
5 2 6
5 3 34
5 4 7
6 0 24
6 1 24
6 2 39
6 3 4
6 4 8
6 5 16
7 0 3
7 1 5
7 2 38
7 3 38
7 4 8
7 5 4
7 6 12
8 0 23
8 1 11
8 2 3
8 3 30
8 4 10
8 5 38
8 6 11
8 7 39
9 0 1
9 1 37
9 2 36
9 3 29
9 4 30
9 5 8
9 6 8
9 7 19
9 8 24
